100 49056

 759 32
25 937
23 52
324 542
489 710
771 871
684 715
446 802
274 340
998 815
427 81
452 895
164 548
795 818
694 453
221 644
83 527
681 732
655 82
274 61
951 248
152 160
433 872
944 220
420 976
639 337
398 183
275 790
984 659
410 499
895 556
230 720
214 229
32 997
652 975
369 651
865 200
474 681
969 73
186 31
869 258
777 463
771 869
845 728
762 743
627 426
132 346
33 372
921 988
617 41
797 868
482 579
118 439
126 726
686 487
431 874
201 901
492 422
65 277
582 593
269 913
798 211
311 623
456 632
12 734
73 132
393 716
480 910
601 180
292 238
695 972
861 181
780 855
40 493
481 248
105 871
243 446
987 515
143 360
499 593
619 164
703 392
560 970
10 259
327 657
518 326
88 774
351 131
34 970
79 454
397 237
133 74
568 170
690 520
801 338
201 829
168 431
105 249
637 618
707 707
